20
XYZ file generated by orca_plot on BaseName=22_AcOH_Uracil_1
  C      -1.113626      1.327020      0.275167
  O      -0.467083      2.349388      0.461537
  O      -0.578089      0.136920      0.049617
  H       0.413320      0.203257      0.055487
  C      -2.611425      1.286190      0.277361
  H      -3.006649      2.276885      0.465790
  H      -2.964256      0.915259     -0.682001
  H      -2.953114      0.591798      1.041240
  N       4.196973      1.088162      0.182850
  H       4.590178      0.172772      0.011131
  C       5.118501      2.136278      0.364303
  O       6.315647      1.917982      0.311424
  C       4.479435      3.415740      0.604911
  H       5.098970      4.282665      0.756388
  C       3.132351      3.495730      0.634292
  H       2.609511      4.424177      0.809590
  N       2.328620      2.405048      0.443886
  H       1.304568      2.474996      0.467676
  C       2.828553      1.154826      0.209714
  O       2.116520      0.165321      0.036243
